n_res = 4;
rc = [ 15, 17, 12, 14 ];
n_tasks = 30;
d = [ 1, 3, 8, 1, 4, 4, 3, 7, 9, 2, 8, 6, 2, 8, 9, 2, 10, 8, 7, 5, 5, 8, 8, 1, 10, 5, 10, 3, 8, 10 ];
rr = [| 15, 15, 15, 15, 15, 15, 15, 15, 15, 15, 15, 15, 15, 15, 15, 15, 15, 15, 15, 15, 15, 15, 15, 15, 15, 15, 15, 15, 15, 15
      | 17, 17, 17, 17, 17, 17, 17, 17, 17, 17, 17, 17, 17, 17, 17, 17, 17, 17, 17, 17, 17, 17, 17, 17, 17, 17, 17, 17, 17, 17
      | 12, 12, 12, 12, 12, 12, 12, 12, 12, 12, 12, 12, 12, 12, 12, 12, 12, 12, 12, 12, 12, 12, 12, 12, 12, 12, 12, 12, 12, 12
      | 14, 14, 14, 14, 14, 14, 14, 14, 14, 14, 14, 14, 14, 14, 14, 14, 14, 14, 14, 14, 14, 14, 14, 14, 14, 14, 14, 14, 14, 14|];
suc = [ { 18, 28 },
       { 6, 9, 19 },
       { 4, 5, 15 },
       { 7, 10, 12 },
       { 11, 13 },
       { 14 },
       { 8 },
       { 21 },
       { 20, 23 },
       { 16 },
       { 16 },
       { 22, 24, 26 },
       { 25 },
       { 22, 24 },
       { 17, 27, 29 },
       { 30 },
       { 26, 28 },
       { 24 },
       { 27 },
       { 25 },
       { 22 },
       { 28 },
       { 29 },
       { 25 },
       { 27 },
       { 30 },
       { 30 },
       {  },
       {  },
       {  } ];
